NAME : C1.416064.tour
COMMENT : Length = 416064
COMMENT : Found by LKH [Keld Helsgaun] Sun Dec 17 16:56:47 2017
TYPE : TOUR
DIMENSION : 55
TOUR_SECTION
1
28
7
15
26
14
42
20
43
41
52
33
2
23
29
32
27
9
49
8
24
25
44
54
48
19
5
18
38
45
16
46
34
53
13
6
39
50
10
35
31
11
40
55
47
12
3
17
51
22
30
21
4
36
37
-1
EOF
